Maximize
  0.0199157643192134 Z_127_0_0 + 0.0849793673191916 Z_127_0_1
   + 0.0720309138452899 Z_127_0_2 + 0.0121766633190857 Z_127_0_3
Subject To
 constraint1_1270: Z_127_0_0 + Z_127_0_1 + Z_127_0_2 + Z_127_0_3 <= 1
 constraint2_1270: Z_127_0_0 <= 1
 constraint2_1271: Z_127_0_1 <= 1
 constraint2_1272: Z_127_0_2 <= 1
 constraint2_1273: Z_127_0_3 <= 1
Bounds
Binaries
 Z_127_0_0 Z_127_0_1 Z_127_0_2 Z_127_0_3
End
